LPs/24_8_12/CW_24_8_12.dat-s
10
25
1 1 1 1 1 1 1 1 1 1 1 1 1 1 1 1 1 1 1 1 1 1 1 1 1
-1 -1 -1 -1 -1 -1 -1 -1 -1 -1
1 1 1 1 1
2 1 1 1 1
3 1 1 1 1
4 1 1 1 1
5 1 1 1 1
6 1 1 1 1
7 1 1 1 1
8 1 1 1 1
9 1 1 1 1
10 1 1 1 1
1 2 1 1 6
2 2 1 1 2
3 2 1 1 1
5 2 1 1 -1
6 2 1 1 -2
7 2 1 1 -3
8 2 1 1 -4
9 2 1 1 -5
10 2 1 1 -6
1 3 1 1 792
2 3 1 1 56
3 3 1 1 -13
4 3 1 1 -36
5 3 1 1 -13
6 3 1 1 56
7 3 1 1 171
8 3 1 1 332
9 3 1 1 539
10 3 1 1 792
1 4 1 1 1320
2 4 1 1 -8
3 4 1 1 -25
5 4 1 1 25
6 4 1 1 8
7 4 1 1 -93
8 4 1 1 -320
9 4 1 1 -715
10 4 1 1 -1320
1 5 1 1 21780
2 5 1 1 -284
3 5 1 1 -25
4 5 1 1 150
5 5 1 1 -25
6 5 1 1 -284
7 5 1 1 171
8 5 1 1 2670
9 5 1 1 9075
10 5 1 1 21780
1 6 1 1 13068
2 6 1 1 -52
3 6 1 1 50
5 6 1 1 -50
6 6 1 1 52
7 6 1 1 135
8 6 1 1 -618
9 6 1 1 -3993
10 6 1 1 -13068
1 7 1 1 304920
2 7 1 1 616
3 7 1 1 350
4 7 1 1 -600
5 7 1 1 350
6 7 1 1 616
7 7 1 1 -2709
8 7 1 1 1680
9 7 1 1 63525
10 7 1 1 304920
1 8 1 1 43560
2 8 1 1 104
3 8 1 1 -50
5 8 1 1 50
6 8 1 1 -104
7 8 1 1 99
8 8 1 1 540
9 8 1 1 -5445
10 8 1 1 -43560
1 9 1 1 98010
2 9 1 1 22
3 9 1 1 -80
4 9 1 1 90
5 9 1 1 -80
6 9 1 1 22
7 9 1 1 243
8 9 1 1 -1440
9 9 1 1 5445
10 9 1 1 98010
1 10 1 1 10890
2 10 1 1 -14
3 10 1 1 5
5 10 1 1 -5
6 10 1 1 14
7 10 1 1 -36
8 10 1 1 90
10 10 1 1 -10890
1 11 1 1 17424
2 11 1 1 -16
3 11 1 1 13
4 11 1 1 -12
5 11 1 1 13
6 11 1 1 -16
7 11 1 1 18
8 11 1 1 24
9 11 1 1 -726
10 11 1 1 17424
1 12 1 1 23760
2 12 1 1 16
3 12 1 1 -5
5 12 1 1 5
6 12 1 1 -16
7 12 1 1 54
8 12 1 1 -240
9 12 1 1 1650
10 12 1 1 -23760
1 13 1 1 27720
2 13 1 1 56
3 13 1 1 -35
4 13 1 1 30
5 13 1 1 -35
6 13 1 1 56
7 13 1 1 -126
8 13 1 1 420
9 13 1 1 -2310
10 13 1 1 27720
0 14 1 1 1
1 14 1 1 1
0 15 1 1 -1
1 15 1 1 -1
1 16 1 1 1
2 17 1 1 1
3 18 1 1 1
4 19 1 1 1
5 20 1 1 1
6 21 1 1 1
7 22 1 1 1
8 23 1 1 1
9 24 1 1 1
10 25 1 1 1
