LPs/24_8_12/CW_24_8_12.lp
Maximize
 +1 y1 +1 y2 +1 y3 +1 y4 +1 y5 +1 y6 +1 y7 +1 y8 +1 y9 +1 y10
Subject To
# constraintnummer: 1
 +1 y1 +1 y2 +1 y3 +1 y4 +1 y5 +1 y6 +1 y7 +1 y8 +1 y9 +1 y10 >= 0
# constraintnummer: 2
 +6 y1 +2 y2 +1 y3 +-1 y5 +-2 y6 +-3 y7 +-4 y8 +-5 y9 +-6 y10 >= 0
# constraintnummer: 3
 +792 y1 +56 y2 +-13 y3 +-36 y4 +-13 y5 +56 y6 +171 y7 +332 y8 +539 y9 +792 y10 >= 0
# constraintnummer: 4
 +1320 y1 +-8 y2 +-25 y3 +25 y5 +8 y6 +-93 y7 +-320 y8 +-715 y9 +-1320 y10 >= 0
# constraintnummer: 5
 +21780 y1 +-284 y2 +-25 y3 +150 y4 +-25 y5 +-284 y6 +171 y7 +2670 y8 +9075 y9 +21780 y10 >= 0
# constraintnummer: 6
 +13068 y1 +-52 y2 +50 y3 +-50 y5 +52 y6 +135 y7 +-618 y8 +-3993 y9 +-13068 y10 >= 0
# constraintnummer: 7
 +304920 y1 +616 y2 +350 y3 +-600 y4 +350 y5 +616 y6 +-2709 y7 +1680 y8 +63525 y9 +304920 y10 >= 0
# constraintnummer: 8
 +43560 y1 +104 y2 +-50 y3 +50 y5 +-104 y6 +99 y7 +540 y8 +-5445 y9 +-43560 y10 >= 0
# constraintnummer: 9
 +98010 y1 +22 y2 +-80 y3 +90 y4 +-80 y5 +22 y6 +243 y7 +-1440 y8 +5445 y9 +98010 y10 >= 0
# constraintnummer: 10
 +10890 y1 +-14 y2 +5 y3 +-5 y5 +14 y6 +-36 y7 +90 y8 +-10890 y10 >= 0
# constraintnummer: 11
 +17424 y1 +-16 y2 +13 y3 +-12 y4 +13 y5 +-16 y6 +18 y7 +24 y8 +-726 y9 +17424 y10 >= 0
# constraintnummer: 12
 +23760 y1 +16 y2 +-5 y3 +5 y5 +-16 y6 +54 y7 +-240 y8 +1650 y9 +-23760 y10 >= 0
# constraintnummer: 13
 +27720 y1 +56 y2 +-35 y3 +30 y4 +-35 y5 +56 y6 +-126 y7 +420 y8 +-2310 y9 +27720 y10 >= 0
 +-1 +1 y1  >= 0
 +1 +-1 y1 >= 0
# nonnegativity
y1 >= 0
y2 >= 0
y3 >= 0
y4 >= 0
y5 >= 0
y6 >= 0
y7 >= 0
y8 >= 0
y9 >= 0
y10 >= 0
